p cnf 962 2469
51 -2 -695 0
-51 2 0
-51 695 0
52 -51 -696 0
-52 51 0
-52 696 0
53 -697 -698 0
-53 697 0
-53 698 0
54 -53 -6 0
-54 53 0
-54 6 0
55 -699 -700 0
-55 699 0
-55 700 0
56 -701 -4 0
-56 701 0
-56 4 0
57 -56 -8 0
-57 56 0
-57 8 0
58 -702 -55 0
-58 702 0
-58 55 0
59 -703 -704 0
-59 703 0
-59 704 0
60 -59 -705 0
-60 59 0
-60 705 0
61 -706 -58 0
-61 706 0
-61 58 0
62 -13 -707 0
-62 13 0
-62 707 0
63 -62 -14 0
-63 62 0
-63 14 0
64 -708 -61 0
-64 708 0
-64 61 0
65 -709 -15 0
-65 709 0
-65 15 0
66 -65 -17 0
-66 65 0
-66 17 0
67 -710 -64 0
-67 710 0
-67 64 0
68 -711 -712 0
-68 711 0
-68 712 0
69 -68 -713 0
-69 68 0
-69 713 0
70 -714 -67 0
-70 714 0
-70 67 0
71 -715 -716 0
-71 715 0
-71 716 0
72 -71 -717 0
-72 71 0
-72 717 0
73 -718 -70 0
-73 718 0
-73 70 0
74 -719 -720 0
-74 719 0
-74 720 0
75 -74 -721 0
-75 74 0
-75 721 0
76 -722 -73 0
-76 722 0
-76 73 0
77 -28 -27 0
-77 28 0
-77 27 0
78 -77 -29 0
-78 77 0
-78 29 0
79 -723 -76 0
-79 723 0
-79 76 0
80 -724 -725 0
-80 724 0
-80 725 0
81 -80 -19 0
-81 80 0
-81 19 0
82 -726 -79 0
-82 726 0
-82 79 0
83 -32 -18 0
-83 32 0
-83 18 0
84 -83 -727 0
-84 83 0
-84 727 0
85 -728 -82 0
-85 728 0
-85 82 0
86 -709 -701 0
-86 709 0
-86 701 0
87 -86 -729 0
-87 86 0
-87 729 0
88 -730 -85 0
-88 730 0
-88 85 0
89 -34 -709 0
-89 34 0
-89 709 0
90 -89 -731 0
-90 89 0
-90 731 0
91 -732 -88 0
-91 732 0
-91 88 0
92 -36 -733 0
-92 36 0
-92 733 0
93 -92 -697 0
-93 92 0
-93 697 0
94 -734 -91 0
-94 734 0
-94 91 0
95 -34 -22 0
-95 34 0
-95 22 0
96 -95 -37 0
-96 95 0
-96 37 0
97 -735 -94 0
-97 735 0
-97 94 0
98 -736 -2 0
-98 736 0
-98 2 0
99 -98 -10 0
-99 98 0
-99 10 0
100 -737 -97 0
-100 737 0
-100 97 0
101 -33 -1 0
-101 33 0
-101 1 0
102 -101 -713 0
-102 101 0
-102 713 0
103 -738 -100 0
-103 738 0
-103 100 0
104 -721 -713 0
-104 721 0
-104 713 0
105 -104 -39 0
-105 104 0
-105 39 0
106 -739 -103 0
-106 739 0
-106 103 0
107 -30 -29 0
-107 30 0
-107 29 0
108 -107 -727 0
-108 107 0
-108 727 0
109 -740 -106 0
-109 740 0
-109 106 0
110 -741 -12 0
-110 741 0
-110 12 0
111 -110 -724 0
-111 110 0
-111 724 0
112 -742 -109 0
-112 742 0
-112 109 0
113 -733 -701 0
-113 733 0
-113 701 0
114 -113 -11 0
-114 113 0
-114 11 0
115 -743 -112 0
-115 743 0
-115 112 0
116 -22 -744 0
-116 22 0
-116 744 0
117 -116 -745 0
-117 116 0
-117 745 0
118 -746 -115 0
-118 746 0
-118 115 0
119 -716 -695 0
-119 716 0
-119 695 0
120 -119 -41 0
-120 119 0
-120 41 0
121 -747 -118 0
-121 747 0
-121 118 0
122 -32 -7 0
-122 32 0
-122 7 0
123 -122 -5 0
-123 122 0
-123 5 0
124 -748 -121 0
-124 748 0
-124 121 0
125 -749 -750 0
-125 749 0
-125 750 0
126 -125 -42 0
-126 125 0
-126 42 0
127 -751 -124 0
-127 751 0
-127 124 0
128 -36 -716 0
-128 36 0
-128 716 0
129 -128 -750 0
-129 128 0
-129 750 0
130 -752 -127 0
-130 752 0
-130 127 0
131 -43 -731 0
-131 43 0
-131 731 0
132 -131 -727 0
-132 131 0
-132 727 0
133 -753 -130 0
-133 753 0
-133 130 0
134 -715 -18 0
-134 715 0
-134 18 0
135 -134 -721 0
-135 134 0
-135 721 0
136 -754 -133 0
-136 754 0
-136 133 0
137 -44 -7 0
-137 44 0
-137 7 0
138 -137 -42 0
-138 137 0
-138 42 0
139 -755 -136 0
-139 755 0
-139 136 0
140 -756 -698 0
-140 756 0
-140 698 0
141 -140 -721 0
-141 140 0
-141 721 0
142 -757 -139 0
-142 757 0
-142 139 0
143 -46 -729 0
-143 46 0
-143 729 0
144 -143 -711 0
-144 143 0
-144 711 0
145 -758 -142 0
-145 758 0
-145 142 0
146 -725 -759 0
-146 725 0
-146 759 0
147 -146 -28 0
-147 146 0
-147 28 0
148 -760 -145 0
-148 760 0
-148 145 0
149 -744 -707 0
-149 744 0
-149 707 0
150 -149 -45 0
-150 149 0
-150 45 0
151 -761 -148 0
-151 761 0
-151 148 0
152 -46 -15 0
-152 46 0
-152 15 0
153 -152 -762 0
-153 152 0
-153 762 0
154 -763 -151 0
-154 763 0
-154 151 0
155 -43 -18 0
-155 43 0
-155 18 0
156 -155 -764 0
-156 155 0
-156 764 0
157 -765 -154 0
-157 765 0
-157 154 0
158 -44 -759 0
-158 44 0
-158 759 0
159 -158 -764 0
-159 158 0
-159 764 0
160 -766 -157 0
-160 766 0
-160 157 0
161 -47 -736 0
-161 47 0
-161 736 0
162 -161 -719 0
-162 161 0
-162 719 0
163 -767 -160 0
-163 767 0
-163 160 0
164 -42 -29 0
-164 42 0
-164 29 0
165 -164 -762 0
-165 164 0
-165 762 0
166 -768 -163 0
-166 768 0
-166 163 0
167 -38 -12 0
-167 38 0
-167 12 0
168 -167 -769 0
-168 167 0
-168 769 0
169 -770 -166 0
-169 770 0
-169 166 0
170 -26 -705 0
-170 26 0
-170 705 0
171 -170 -29 0
-171 170 0
-171 29 0
172 -771 -169 0
-172 771 0
-172 169 0
173 -772 -701 0
-173 772 0
-173 701 0
174 -173 -10 0
-174 173 0
-174 10 0
175 -773 -172 0
-175 773 0
-175 172 0
176 -37 -764 0
-176 37 0
-176 764 0
177 -176 -769 0
-177 176 0
-177 769 0
178 -774 -175 0
-178 774 0
-178 175 0
179 -38 -695 0
-179 38 0
-179 695 0
180 -179 -10 0
-180 179 0
-180 10 0
181 -775 -178 0
-181 775 0
-181 178 0
182 -15 -707 0
-182 15 0
-182 707 0
183 -182 -696 0
-183 182 0
-183 696 0
184 -776 -181 0
-184 776 0
-184 181 0
185 -717 -16 0
-185 717 0
-185 16 0
186 -185 -6 0
-186 185 0
-186 6 0
187 -777 -184 0
-187 777 0
-187 184 0
188 -729 -11 0
-188 729 0
-188 11 0
189 -188 -769 0
-189 188 0
-189 769 0
190 -778 -187 0
-190 778 0
-190 187 0
191 -32 -709 0
-191 32 0
-191 709 0
192 -191 -779 0
-192 191 0
-192 779 0
193 -780 -190 0
-193 780 0
-193 190 0
194 -720 -12 0
-194 720 0
-194 12 0
195 -194 -29 0
-195 194 0
-195 29 0
196 -781 -193 0
-196 781 0
-196 193 0
197 -724 -782 0
-197 724 0
-197 782 0
198 -197 -14 0
-198 197 0
-198 14 0
199 -783 -196 0
-199 783 0
-199 196 0
200 -27 -715 0
-200 27 0
-200 715 0
201 -200 -784 0
-201 200 0
-201 784 0
202 -785 -199 0
-202 785 0
-202 199 0
203 -736 -33 0
-203 736 0
-203 33 0
204 -203 -764 0
-204 203 0
-204 764 0
205 -786 -202 0
-205 786 0
-205 202 0
206 -41 -27 0
-206 41 0
-206 27 0
207 -206 -784 0
-207 206 0
-207 784 0
208 -787 -205 0
-208 787 0
-208 205 0
209 -772 -10 0
-209 772 0
-209 10 0
210 -209 -696 0
-210 209 0
-210 696 0
211 -788 -208 0
-211 788 0
-211 208 0
212 -789 -790 0
-212 789 0
-212 790 0
213 -212 -696 0
-213 212 0
-213 696 0
214 -791 -211 0
-214 791 0
-214 211 0
215 -35 -792 0
-215 35 0
-215 792 0
216 -215 -724 0
-216 215 0
-216 724 0
217 -793 -214 0
-217 793 0
-217 214 0
218 -30 -721 0
-218 30 0
-218 721 0
219 -218 -20 0
-219 218 0
-219 20 0
220 -794 -217 0
-220 794 0
-220 217 0
221 -43 -789 0
-221 43 0
-221 789 0
222 -221 -14 0
-222 221 0
-222 14 0
223 -795 -220 0
-223 795 0
-223 220 0
224 -41 -24 0
-224 41 0
-224 24 0
225 -224 -45 0
-225 224 0
-225 45 0
226 -796 -223 0
-226 796 0
-226 223 0
227 -48 -18 0
-227 48 0
-227 18 0
228 -227 -30 0
-228 227 0
-228 30 0
229 -797 -226 0
-229 797 0
-229 226 0
230 -798 -1 0
-230 798 0
-230 1 0
231 -230 -16 0
-231 230 0
-231 16 0
232 -799 -229 0
-232 799 0
-232 229 0
233 -45 -733 0
-233 45 0
-233 733 0
234 -233 -713 0
-234 233 0
-234 713 0
235 -800 -232 0
-235 800 0
-235 232 0
236 -731 -705 0
-236 731 0
-236 705 0
237 -236 -14 0
-237 236 0
-237 14 0
238 -801 -235 0
-238 801 0
-238 235 0
239 -18 -707 0
-239 18 0
-239 707 0
240 -239 -705 0
-240 239 0
-240 705 0
241 -802 -238 0
-241 802 0
-241 238 0
242 -41 -36 0
-242 41 0
-242 36 0
243 -242 -30 0
-243 242 0
-243 30 0
244 -803 -241 0
-244 803 0
-244 241 0
245 -30 -7 0
-245 30 0
-245 7 0
246 -245 -727 0
-246 245 0
-246 727 0
247 -804 -244 0
-247 804 0
-247 244 0
248 -44 -9 0
-248 44 0
-248 9 0
249 -248 -17 0
-249 248 0
-249 17 0
250 -805 -247 0
-250 805 0
-250 247 0
251 -806 -25 0
-251 806 0
-251 25 0
252 -251 -6 0
-252 251 0
-252 6 0
253 -807 -250 0
-253 807 0
-253 250 0
254 -50 -808 0
-254 50 0
-254 808 0
255 -254 -26 0
-255 254 0
-255 26 0
256 -809 -253 0
-256 809 0
-256 253 0
257 -38 -7 0
-257 38 0
-257 7 0
258 -257 -729 0
-258 257 0
-258 729 0
259 -810 -256 0
-259 810 0
-259 256 0
260 -35 -712 0
-260 35 0
-260 712 0
261 -260 -806 0
-261 260 0
-261 806 0
262 -811 -259 0
-262 811 0
-262 259 0
263 -812 -784 0
-263 812 0
-263 784 0
264 -263 -29 0
-264 263 0
-264 29 0
265 -813 -262 0
-265 813 0
-265 262 0
266 -30 -13 0
-266 30 0
-266 13 0
267 -266 -10 0
-267 266 0
-267 10 0
268 -814 -265 0
-268 814 0
-268 265 0
269 -14 -7 0
-269 14 0
-269 7 0
270 -269 -727 0
-270 269 0
-270 727 0
271 -815 -268 0
-271 815 0
-271 268 0
272 -32 -759 0
-272 32 0
-272 759 0
273 -272 -745 0
-273 272 0
-273 745 0
274 -816 -271 0
-274 816 0
-274 271 0
275 -35 -8 0
-275 35 0
-275 8 0
276 -275 -711 0
-276 275 0
-276 711 0
277 -817 -274 0
-277 817 0
-277 274 0
278 -798 -4 0
-278 798 0
-278 4 0
279 -278 -30 0
-279 278 0
-279 30 0
280 -818 -277 0
-280 818 0
-280 277 0
281 -789 -21 0
-281 789 0
-281 21 0
282 -281 -37 0
-282 281 0
-282 37 0
283 -819 -280 0
-283 819 0
-283 280 0
284 -40 -36 0
-284 40 0
-284 36 0
285 -284 -5 0
-285 284 0
-285 5 0
286 -820 -283 0
-286 820 0
-286 283 0
287 -720 -22 0
-287 720 0
-287 22 0
288 -287 -47 0
-288 287 0
-288 47 0
289 -821 -286 0
-289 821 0
-289 286 0
290 -756 -720 0
-290 756 0
-290 720 0
291 -290 -727 0
-291 290 0
-291 727 0
292 -822 -289 0
-292 822 0
-292 289 0
293 -18 -1 0
-293 18 0
-293 1 0
294 -293 -756 0
-294 293 0
-294 756 0
295 -823 -292 0
-295 823 0
-295 292 0
296 -49 -4 0
-296 49 0
-296 4 0
297 -296 -47 0
-297 296 0
-297 47 0
298 -824 -295 0
-298 824 0
-298 295 0
299 -50 -24 0
-299 50 0
-299 24 0
300 -299 -47 0
-300 299 0
-300 47 0
301 -825 -298 0
-301 825 0
-301 298 0
302 -729 -18 0
-302 729 0
-302 18 0
303 -302 -42 0
-303 302 0
-303 42 0
304 -826 -301 0
-304 826 0
-304 301 0
305 -41 -18 0
-305 41 0
-305 18 0
306 -305 -22 0
-306 305 0
-306 22 0
307 -827 -304 0
-307 827 0
-307 304 0
308 -707 -7 0
-308 707 0
-308 7 0
309 -308 -1 0
-309 308 0
-309 1 0
310 -828 -307 0
-310 828 0
-310 307 0
311 -50 -736 0
-311 50 0
-311 736 0
312 -311 -28 0
-312 311 0
-312 28 0
313 -829 -310 0
-313 829 0
-313 310 0
314 -808 -792 0
-314 808 0
-314 792 0
315 -314 -772 0
-315 314 0
-315 772 0
316 -830 -313 0
-316 830 0
-316 313 0
317 -725 -711 0
-317 725 0
-317 711 0
318 -317 -5 0
-318 317 0
-318 5 0
319 -831 -316 0
-319 831 0
-319 316 0
320 -49 -731 0
-320 49 0
-320 731 0
321 -320 -832 0
-321 320 0
-321 832 0
322 -833 -319 0
-322 833 0
-322 319 0
323 -725 -8 0
-323 725 0
-323 8 0
324 -323 -47 0
-324 323 0
-324 47 0
325 -834 -322 0
-325 834 0
-325 322 0
326 -50 -789 0
-326 50 0
-326 789 0
327 -326 -45 0
-327 326 0
-327 45 0
328 -835 -325 0
-328 835 0
-328 325 0
329 -798 -28 0
-329 798 0
-329 28 0
330 -329 -9 0
-330 329 0
-330 9 0
331 -836 -328 0
-331 836 0
-331 328 0
332 -49 -729 0
-332 49 0
-332 729 0
333 -332 -29 0
-333 332 0
-333 29 0
334 -837 -331 0
-334 837 0
-334 331 0
335 -49 -745 0
-335 49 0
-335 745 0
336 -335 -10 0
-336 335 0
-336 10 0
337 -838 -334 0
-337 838 0
-337 334 0
338 -741 -782 0
-338 741 0
-338 782 0
339 -338 -729 0
-339 338 0
-339 729 0
340 -839 -337 0
-340 839 0
-340 337 0
341 -30 -21 0
-341 30 0
-341 21 0
342 -341 -724 0
-342 341 0
-342 724 0
343 -840 -340 0
-343 840 0
-343 340 0
344 -278 -1 0
-344 278 0
-344 1 0
345 -841 -343 0
-345 841 0
-345 343 0
346 -30 -15 0
-346 30 0
-346 15 0
347 -346 -696 0
-347 346 0
-347 696 0
348 -842 -345 0
-348 842 0
-348 345 0
349 -715 -707 0
-349 715 0
-349 707 0
350 -349 -792 0
-350 349 0
-350 792 0
351 -843 -348 0
-351 843 0
-351 348 0
352 -45 -25 0
-352 45 0
-352 25 0
353 -352 -764 0
-353 352 0
-353 764 0
354 -844 -351 0
-354 844 0
-354 351 0
355 -720 -832 0
-355 720 0
-355 832 0
356 -355 -37 0
-356 355 0
-356 37 0
357 -845 -354 0
-357 845 0
-357 354 0
358 -749 -725 0
-358 749 0
-358 725 0
359 -358 -47 0
-359 358 0
-359 47 0
360 -846 -357 0
-360 846 0
-360 357 0
361 -45 -729 0
-361 45 0
-361 729 0
362 -361 -703 0
-362 361 0
-362 703 0
363 -847 -360 0
-363 847 0
-363 360 0
364 -17 -3 0
-364 17 0
-364 3 0
365 -364 -779 0
-365 364 0
-365 779 0
366 -848 -363 0
-366 848 0
-366 363 0
367 -789 -19 0
-367 789 0
-367 19 0
368 -367 -5 0
-368 367 0
-368 5 0
369 -849 -366 0
-369 849 0
-369 366 0
370 -16 -7 0
-370 16 0
-370 7 0
371 -370 -35 0
-371 370 0
-371 35 0
372 -850 -369 0
-372 850 0
-372 369 0
373 -45 -798 0
-373 45 0
-373 798 0
374 -373 -806 0
-374 373 0
-374 806 0
375 -851 -372 0
-375 851 0
-375 372 0
376 -35 -790 0
-376 35 0
-376 790 0
377 -376 -711 0
-377 376 0
-377 711 0
378 -852 -375 0
-378 852 0
-378 375 0
379 -853 -715 0
-379 853 0
-379 715 0
380 -379 -3 0
-380 379 0
-380 3 0
381 -854 -378 0
-381 854 0
-381 378 0
382 -21 -711 0
-382 21 0
-382 711 0
383 -382 -42 0
-383 382 0
-383 42 0
384 -855 -381 0
-384 855 0
-384 381 0
385 -812 -709 0
-385 812 0
-385 709 0
386 -385 -704 0
-386 385 0
-386 704 0
387 -856 -384 0
-387 856 0
-387 384 0
388 -45 -36 0
-388 45 0
-388 36 0
389 -388 -9 0
-389 388 0
-389 9 0
390 -857 -387 0
-390 857 0
-390 387 0
391 -48 -27 0
-391 48 0
-391 27 0
392 -391 -37 0
-392 391 0
-392 37 0
393 -858 -390 0
-393 858 0
-393 390 0
394 -719 -709 0
-394 719 0
-394 709 0
395 -394 -727 0
-395 394 0
-395 727 0
396 -859 -393 0
-396 859 0
-396 393 0
397 -16 -744 0
-397 16 0
-397 744 0
398 -397 -9 0
-398 397 0
-398 9 0
399 -860 -396 0
-399 860 0
-399 396 0
400 -31 -709 0
-400 31 0
-400 709 0
401 -400 -721 0
-401 400 0
-401 721 0
402 -861 -399 0
-402 861 0
-402 399 0
403 -236 -29 0
-403 236 0
-403 29 0
404 -862 -402 0
-404 862 0
-404 402 0
405 -772 -711 0
-405 772 0
-405 711 0
406 -405 -11 0
-406 405 0
-406 11 0
407 -863 -404 0
-407 863 0
-407 404 0
408 -45 -38 0
-408 45 0
-408 38 0
409 -408 -745 0
-409 408 0
-409 745 0
410 -864 -407 0
-410 864 0
-410 407 0
411 -750 -720 0
-411 750 0
-411 720 0
412 -411 -769 0
-412 411 0
-412 769 0
413 -865 -410 0
-413 865 0
-413 410 0
414 -789 -17 0
-414 789 0
-414 17 0
415 -414 -42 0
-415 414 0
-415 42 0
416 -866 -413 0
-416 866 0
-416 413 0
417 -18 -17 0
-417 18 0
-417 17 0
418 -417 -39 0
-418 417 0
-418 39 0
419 -867 -416 0
-419 867 0
-419 416 0
420 -50 -772 0
-420 50 0
-420 772 0
421 -420 -713 0
-421 420 0
-421 713 0
422 -868 -419 0
-422 868 0
-422 419 0
423 -47 -703 0
-423 47 0
-423 703 0
424 -423 -705 0
-424 423 0
-424 705 0
425 -869 -422 0
-425 869 0
-425 422 0
426 -35 -27 0
-426 35 0
-426 27 0
427 -426 -705 0
-427 426 0
-427 705 0
428 -870 -425 0
-428 870 0
-428 425 0
429 -13 -701 0
-429 13 0
-429 701 0
430 -429 -14 0
-430 429 0
-430 14 0
431 -871 -428 0
-431 871 0
-431 428 0
432 -4 -1 0
-432 4 0
-432 1 0
433 -432 -790 0
-433 432 0
-433 790 0
434 -872 -431 0
-434 872 0
-434 431 0
435 -707 -4 0
-435 707 0
-435 4 0
436 -435 -34 0
-436 435 0
-436 34 0
437 -873 -434 0
-437 873 0
-437 434 0
438 -16 -13 0
-438 16 0
-438 13 0
439 -438 -8 0
-439 438 0
-439 8 0
440 -874 -437 0
-440 874 0
-440 437 0
441 -48 -720 0
-441 48 0
-441 720 0
442 -441 -50 0
-442 441 0
-442 50 0
443 -875 -440 0
-443 875 0
-443 440 0
444 -182 -39 0
-444 182 0
-444 39 0
445 -876 -443 0
-445 876 0
-445 443 0
446 -38 -22 0
-446 38 0
-446 22 0
447 -446 -17 0
-447 446 0
-447 17 0
448 -877 -445 0
-448 877 0
-448 445 0
449 -806 -44 0
-449 806 0
-449 44 0
450 -449 -878 0
-450 449 0
-450 878 0
451 -879 -448 0
-451 879 0
-451 448 0
452 -853 -19 0
-452 853 0
-452 19 0
453 -452 -37 0
-453 452 0
-453 37 0
454 -880 -451 0
-454 880 0
-454 451 0
455 -750 -711 0
-455 750 0
-455 711 0
456 -455 -703 0
-456 455 0
-456 703 0
457 -881 -454 0
-457 881 0
-457 454 0
458 -750 -701 0
-458 750 0
-458 701 0
459 -458 -715 0
-459 458 0
-459 715 0
460 -882 -457 0
-460 882 0
-460 457 0
461 -736 -15 0
-461 736 0
-461 15 0
462 -461 -790 0
-462 461 0
-462 790 0
463 -883 -460 0
-463 883 0
-463 460 0
464 -749 -28 0
-464 749 0
-464 28 0
465 -464 -47 0
-465 464 0
-465 47 0
466 -884 -463 0
-466 884 0
-466 463 0
467 -709 -707 0
-467 709 0
-467 707 0
468 -467 -39 0
-468 467 0
-468 39 0
469 -885 -466 0
-469 885 0
-469 466 0
470 -725 -18 0
-470 725 0
-470 18 0
471 -470 -713 0
-471 470 0
-471 713 0
472 -886 -469 0
-472 886 0
-472 469 0
473 -21 -698 0
-473 21 0
-473 698 0
474 -473 -30 0
-474 473 0
-474 30 0
475 -887 -472 0
-475 887 0
-475 472 0
476 -47 -34 0
-476 47 0
-476 34 0
477 -476 -20 0
-477 476 0
-477 20 0
478 -888 -475 0
-478 888 0
-478 475 0
479 -43 -2 0
-479 43 0
-479 2 0
480 -479 -745 0
-480 479 0
-480 745 0
481 -889 -478 0
-481 889 0
-481 478 0
482 -792 -744 0
-482 792 0
-482 744 0
483 -482 -727 0
-483 482 0
-483 727 0
484 -890 -481 0
-484 890 0
-484 481 0
485 -812 -720 0
-485 812 0
-485 720 0
486 -485 -14 0
-486 485 0
-486 14 0
487 -891 -484 0
-487 891 0
-487 484 0
488 -720 -733 0
-488 720 0
-488 733 0
489 -488 -756 0
-489 488 0
-489 756 0
490 -892 -487 0
-490 892 0
-490 487 0
491 -21 -11 0
-491 21 0
-491 11 0
492 -491 -6 0
-492 491 0
-492 6 0
493 -893 -490 0
-493 893 0
-493 490 0
494 -741 -32 0
-494 741 0
-494 32 0
495 -494 -703 0
-495 494 0
-495 703 0
496 -894 -493 0
-496 894 0
-496 493 0
497 -741 -28 0
-497 741 0
-497 28 0
498 -497 -717 0
-498 497 0
-498 717 0
499 -895 -496 0
-499 895 0
-499 496 0
500 -40 -701 0
-500 40 0
-500 701 0
501 -500 -832 0
-501 500 0
-501 832 0
502 -896 -499 0
-502 896 0
-502 499 0
503 -116 -27 0
-503 116 0
-503 27 0
504 -897 -502 0
-504 897 0
-504 502 0
505 -784 -745 0
-505 784 0
-505 745 0
506 -505 -26 0
-506 505 0
-506 26 0
507 -898 -504 0
-507 898 0
-507 504 0
508 -719 -779 0
-508 719 0
-508 779 0
509 -508 -769 0
-509 508 0
-509 769 0
510 -899 -507 0
-510 899 0
-510 507 0
511 -798 -15 0
-511 798 0
-511 15 0
512 -511 -18 0
-512 511 0
-512 18 0
513 -900 -510 0
-513 900 0
-513 510 0
514 -749 -720 0
-514 749 0
-514 720 0
515 -514 -41 0
-515 514 0
-515 41 0
516 -901 -513 0
-516 901 0
-516 513 0
517 -122 -703 0
-517 122 0
-517 703 0
518 -902 -516 0
-518 902 0
-518 516 0
519 -772 -34 0
-519 772 0
-519 34 0
520 -519 -719 0
-520 519 0
-520 719 0
521 -903 -518 0
-521 903 0
-521 518 0
522 -789 -705 0
-522 789 0
-522 705 0
523 -522 -713 0
-523 522 0
-523 713 0
524 -904 -521 0
-524 904 0
-524 521 0
525 -792 -712 0
-525 792 0
-525 712 0
526 -525 -40 0
-526 525 0
-526 40 0
527 -905 -524 0
-527 905 0
-527 524 0
528 -725 -28 0
-528 725 0
-528 28 0
529 -528 -705 0
-529 528 0
-529 705 0
530 -906 -527 0
-530 906 0
-530 527 0
531 -4 -695 0
-531 4 0
-531 695 0
532 -531 -32 0
-532 531 0
-532 32 0
533 -907 -530 0
-533 907 0
-533 530 0
534 -34 -10 0
-534 34 0
-534 10 0
535 -534 -20 0
-535 534 0
-535 20 0
536 -908 -533 0
-536 908 0
-536 533 0
537 -47 -29 0
-537 47 0
-537 29 0
538 -537 -762 0
-538 537 0
-538 762 0
539 -909 -536 0
-539 909 0
-539 536 0
540 -749 -30 0
-540 749 0
-540 30 0
541 -540 -37 0
-541 540 0
-541 37 0
542 -910 -539 0
-542 910 0
-542 539 0
543 -789 -750 0
-543 789 0
-543 750 0
544 -543 -764 0
-544 543 0
-544 764 0
545 -911 -542 0
-545 911 0
-545 542 0
546 -709 -695 0
-546 709 0
-546 695 0
547 -546 -10 0
-547 546 0
-547 10 0
548 -912 -545 0
-548 912 0
-548 545 0
549 -358 -29 0
-549 358 0
-549 29 0
550 -913 -548 0
-550 913 0
-550 548 0
551 -43 -5 0
-551 43 0
-551 5 0
552 -551 -762 0
-552 551 0
-552 762 0
553 -914 -550 0
-553 914 0
-553 550 0
554 -36 -24 0
-554 36 0
-554 24 0
555 -554 -697 0
-555 554 0
-555 697 0
556 -915 -553 0
-556 915 0
-556 553 0
557 -741 -35 0
-557 741 0
-557 35 0
558 -557 -31 0
-558 557 0
-558 31 0
559 -916 -556 0
-559 916 0
-559 556 0
560 -45 -16 0
-560 45 0
-560 16 0
561 -560 -19 0
-561 560 0
-561 19 0
562 -917 -559 0
-562 917 0
-562 559 0
563 -25 -720 0
-563 25 0
-563 720 0
564 -563 -764 0
-564 563 0
-564 764 0
565 -918 -562 0
-565 918 0
-565 562 0
566 -789 -759 0
-566 789 0
-566 759 0
567 -566 -14 0
-567 566 0
-567 14 0
568 -919 -565 0
-568 919 0
-568 565 0
569 -715 -17 0
-569 715 0
-569 17 0
570 -569 -784 0
-570 569 0
-570 784 0
571 -920 -568 0
-571 920 0
-571 568 0
572 -711 -697 0
-572 711 0
-572 697 0
573 -572 -762 0
-573 572 0
-573 762 0
574 -921 -571 0
-574 921 0
-574 571 0
575 -48 -704 0
-575 48 0
-575 704 0
576 -575 -762 0
-576 575 0
-576 762 0
577 -922 -574 0
-577 922 0
-577 574 0
578 -878 -25 0
-578 878 0
-578 25 0
579 -578 -42 0
-579 578 0
-579 42 0
580 -923 -577 0
-580 923 0
-580 577 0
581 -48 -711 0
-581 48 0
-581 711 0
582 -581 -9 0
-582 581 0
-582 9 0
583 -924 -580 0
-583 924 0
-583 580 0
584 -43 -32 0
-584 43 0
-584 32 0
585 -584 -3 0
-585 584 0
-585 3 0
586 -925 -583 0
-586 925 0
-586 583 0
587 -749 -695 0
-587 749 0
-587 695 0
588 -587 -46 0
-588 587 0
-588 46 0
589 -926 -586 0
-589 926 0
-589 586 0
590 -812 -733 0
-590 812 0
-590 733 0
591 -590 -806 0
-591 590 0
-591 806 0
592 -927 -589 0
-592 927 0
-592 589 0
593 -808 -9 0
-593 808 0
-593 9 0
594 -593 -3 0
-594 593 0
-594 3 0
595 -928 -592 0
-595 928 0
-595 592 0
596 -47 -13 0
-596 47 0
-596 13 0
597 -596 -696 0
-597 596 0
-597 696 0
598 -929 -595 0
-598 929 0
-598 595 0
599 -44 -717 0
-599 44 0
-599 717 0
600 -599 -3 0
-600 599 0
-600 3 0
601 -930 -598 0
-601 930 0
-601 598 0
602 -14 -5 0
-602 14 0
-602 5 0
603 -602 -713 0
-603 602 0
-603 713 0
604 -931 -601 0
-604 931 0
-604 601 0
605 -45 -808 0
-605 45 0
-605 808 0
606 -605 -39 0
-606 605 0
-606 39 0
607 -932 -604 0
-607 932 0
-607 604 0
608 -441 -9 0
-608 441 0
-608 9 0
609 -933 -607 0
-609 933 0
-609 607 0
610 -50 -12 0
-610 50 0
-610 12 0
611 -610 -19 0
-611 610 0
-611 19 0
612 -934 -609 0
-612 934 0
-612 609 0
613 -47 -41 0
-613 47 0
-613 41 0
614 -613 -719 0
-614 613 0
-614 719 0
615 -935 -612 0
-615 935 0
-615 612 0
616 -853 -24 0
-616 853 0
-616 24 0
617 -616 -724 0
-617 616 0
-617 724 0
618 -936 -615 0
-618 936 0
-618 615 0
619 -798 -715 0
-619 798 0
-619 715 0
620 -619 -769 0
-620 619 0
-620 769 0
621 -937 -618 0
-621 937 0
-621 618 0
622 -36 -1 0
-622 36 0
-622 1 0
623 -622 -749 0
-623 622 0
-623 749 0
624 -938 -621 0
-624 938 0
-624 621 0
625 -720 -695 0
-625 720 0
-625 695 0
626 -625 -16 0
-626 625 0
-626 16 0
627 -939 -624 0
-627 939 0
-627 624 0
628 -756 -703 0
-628 756 0
-628 703 0
629 -628 -764 0
-629 628 0
-629 764 0
630 -940 -627 0
-630 940 0
-630 627 0
631 -13 -4 0
-631 13 0
-631 4 0
632 -631 -22 0
-632 631 0
-632 22 0
633 -941 -630 0
-633 941 0
-633 630 0
634 -46 -21 0
-634 46 0
-634 21 0
635 -634 -26 0
-635 634 0
-635 26 0
636 -942 -633 0
-636 942 0
-636 633 0
637 -798 -707 0
-637 798 0
-637 707 0
638 -637 -1 0
-638 637 0
-638 1 0
639 -943 -636 0
-639 943 0
-639 636 0
640 -17 -12 0
-640 17 0
-640 12 0
641 -640 -762 0
-641 640 0
-641 762 0
642 -944 -639 0
-642 944 0
-642 639 0
643 -741 -15 0
-643 741 0
-643 15 0
644 -643 -721 0
-644 643 0
-644 721 0
645 -945 -642 0
-645 945 0
-645 642 0
646 -13 -705 0
-646 13 0
-646 705 0
647 -646 -764 0
-647 646 0
-647 764 0
648 -946 -645 0
-648 946 0
-648 645 0
649 -43 -4 0
-649 43 0
-649 4 0
650 -649 -26 0
-650 649 0
-650 26 0
651 -947 -648 0
-651 947 0
-651 648 0
652 -806 -23 0
-652 806 0
-652 23 0
653 -652 -3 0
-653 652 0
-653 3 0
654 -948 -651 0
-654 948 0
-654 651 0
655 -10 -5 0
-655 10 0
-655 5 0
656 -655 -14 0
-656 655 0
-656 14 0
657 -949 -654 0
-657 949 0
-657 654 0
658 -31 -7 0
-658 31 0
-658 7 0
659 -658 -779 0
-659 658 0
-659 779 0
660 -950 -657 0
-660 950 0
-660 657 0
661 -149 -697 0
-661 149 0
-661 697 0
662 -951 -660 0
-662 951 0
-662 660 0
663 -38 -698 0
-663 38 0
-663 698 0
664 -663 -13 0
-664 663 0
-664 13 0
665 -952 -662 0
-665 952 0
-665 662 0
666 -749 -25 0
-666 749 0
-666 25 0
667 -666 -14 0
-667 666 0
-667 14 0
668 -953 -665 0
-668 953 0
-668 665 0
669 -131 -745 0
-669 131 0
-669 745 0
670 -954 -668 0
-670 954 0
-670 668 0
671 -44 -725 0
-671 44 0
-671 725 0
672 -671 -731 0
-672 671 0
-672 731 0
673 -955 -670 0
-673 955 0
-673 670 0
674 -812 -759 0
-674 812 0
-674 759 0
675 -674 -712 0
-675 674 0
-675 712 0
676 -956 -673 0
-676 956 0
-676 673 0
677 -49 -709 0
-677 49 0
-677 709 0
678 -677 -9 0
-678 677 0
-678 9 0
679 -957 -676 0
-679 957 0
-679 676 0
680 -749 -716 0
-680 749 0
-680 716 0
681 -680 -711 0
-681 680 0
-681 711 0
682 -958 -679 0
-682 958 0
-682 679 0
683 -806 -41 0
-683 806 0
-683 41 0
684 -683 -878 0
-684 683 0
-684 878 0
685 -959 -682 0
-685 959 0
-685 682 0
686 -22 -15 0
-686 22 0
-686 15 0
687 -686 -35 0
-687 686 0
-687 35 0
688 -960 -685 0
-688 960 0
-688 685 0
689 -812 -698 0
-689 812 0
-689 698 0
690 -689 -21 0
-690 689 0
-690 21 0
691 -961 -688 0
-691 961 0
-691 688 0
692 -33 -12 0
-692 33 0
-692 12 0
693 -692 -23 0
-693 692 0
-693 23 0
694 -962 -691 0
-694 962 0
-694 691 0
-695 -1 0
695 1 0
-696 -3 0
696 3 0
-697 -5 0
697 5 0
-698 -4 0
698 4 0
-699 -54 0
699 54 0
-700 -52 0
700 52 0
-701 -7 0
701 7 0
-702 -57 0
702 57 0
-703 -10 0
703 10 0
-704 -9 0
704 9 0
-705 -11 0
705 11 0
-706 -60 0
706 60 0
-707 -12 0
707 12 0
-708 -63 0
708 63 0
-709 -16 0
709 16 0
-710 -66 0
710 66 0
-711 -19 0
711 19 0
-712 -18 0
712 18 0
-713 -20 0
713 20 0
-714 -69 0
714 69 0
-715 -22 0
715 22 0
-716 -21 0
716 21 0
-717 -23 0
717 23 0
-718 -72 0
718 72 0
-719 -25 0
719 25 0
-720 -24 0
720 24 0
-721 -26 0
721 26 0
-722 -75 0
722 75 0
-723 -78 0
723 78 0
-724 -31 0
724 31 0
-725 -30 0
725 30 0
-726 -81 0
726 81 0
-727 -6 0
727 6 0
-728 -84 0
728 84 0
-729 -33 0
729 33 0
-730 -87 0
730 87 0
-731 -35 0
731 35 0
-732 -90 0
732 90 0
-733 -13 0
733 13 0
-734 -93 0
734 93 0
-735 -96 0
735 96 0
-736 -38 0
736 38 0
-737 -99 0
737 99 0
-738 -102 0
738 102 0
-739 -105 0
739 105 0
-740 -108 0
740 108 0
-741 -36 0
741 36 0
-742 -111 0
742 111 0
-743 -114 0
743 114 0
-744 -15 0
744 15 0
-745 -40 0
745 40 0
-746 -117 0
746 117 0
-747 -120 0
747 120 0
-748 -123 0
748 123 0
-749 -34 0
749 34 0
-750 -32 0
750 32 0
-751 -126 0
751 126 0
-752 -129 0
752 129 0
-753 -132 0
753 132 0
-754 -135 0
754 135 0
-755 -138 0
755 138 0
-756 -45 0
756 45 0
-757 -141 0
757 141 0
-758 -144 0
758 144 0
-759 -2 0
759 2 0
-760 -147 0
760 147 0
-761 -150 0
761 150 0
-762 -37 0
762 37 0
-763 -153 0
763 153 0
-764 -29 0
764 29 0
-765 -156 0
765 156 0
-766 -159 0
766 159 0
-767 -162 0
767 162 0
-768 -165 0
768 165 0
-769 -39 0
769 39 0
-770 -168 0
770 168 0
-771 -171 0
771 171 0
-772 -46 0
772 46 0
-773 -174 0
773 174 0
-774 -177 0
774 177 0
-775 -180 0
775 180 0
-776 -183 0
776 183 0
-777 -186 0
777 186 0
-778 -189 0
778 189 0
-779 -14 0
779 14 0
-780 -192 0
780 192 0
-781 -195 0
781 195 0
-782 -8 0
782 8 0
-783 -198 0
783 198 0
-784 -42 0
784 42 0
-785 -201 0
785 201 0
-786 -204 0
786 204 0
-787 -207 0
787 207 0
-788 -210 0
788 210 0
-789 -41 0
789 41 0
-790 -28 0
790 28 0
-791 -213 0
791 213 0
-792 -27 0
792 27 0
-793 -216 0
793 216 0
-794 -219 0
794 219 0
-795 -222 0
795 222 0
-796 -225 0
796 225 0
-797 -228 0
797 228 0
-798 -44 0
798 44 0
-799 -231 0
799 231 0
-800 -234 0
800 234 0
-801 -237 0
801 237 0
-802 -240 0
802 240 0
-803 -243 0
803 243 0
-804 -246 0
804 246 0
-805 -249 0
805 249 0
-806 -49 0
806 49 0
-807 -252 0
807 252 0
-808 -43 0
808 43 0
-809 -255 0
809 255 0
-810 -258 0
810 258 0
-811 -261 0
811 261 0
-812 -48 0
812 48 0
-813 -264 0
813 264 0
-814 -267 0
814 267 0
-815 -270 0
815 270 0
-816 -273 0
816 273 0
-817 -276 0
817 276 0
-818 -279 0
818 279 0
-819 -282 0
819 282 0
-820 -285 0
820 285 0
-821 -288 0
821 288 0
-822 -291 0
822 291 0
-823 -294 0
823 294 0
-824 -297 0
824 297 0
-825 -300 0
825 300 0
-826 -303 0
826 303 0
-827 -306 0
827 306 0
-828 -309 0
828 309 0
-829 -312 0
829 312 0
-830 -315 0
830 315 0
-831 -318 0
831 318 0
-832 -17 0
832 17 0
-833 -321 0
833 321 0
-834 -324 0
834 324 0
-835 -327 0
835 327 0
-836 -330 0
836 330 0
-837 -333 0
837 333 0
-838 -336 0
838 336 0
-839 -339 0
839 339 0
-840 -342 0
840 342 0
-841 -344 0
841 344 0
-842 -347 0
842 347 0
-843 -350 0
843 350 0
-844 -353 0
844 353 0
-845 -356 0
845 356 0
-846 -359 0
846 359 0
-847 -362 0
847 362 0
-848 -365 0
848 365 0
-849 -368 0
849 368 0
-850 -371 0
850 371 0
-851 -374 0
851 374 0
-852 -377 0
852 377 0
-853 -50 0
853 50 0
-854 -380 0
854 380 0
-855 -383 0
855 383 0
-856 -386 0
856 386 0
-857 -389 0
857 389 0
-858 -392 0
858 392 0
-859 -395 0
859 395 0
-860 -398 0
860 398 0
-861 -401 0
861 401 0
-862 -403 0
862 403 0
-863 -406 0
863 406 0
-864 -409 0
864 409 0
-865 -412 0
865 412 0
-866 -415 0
866 415 0
-867 -418 0
867 418 0
-868 -421 0
868 421 0
-869 -424 0
869 424 0
-870 -427 0
870 427 0
-871 -430 0
871 430 0
-872 -433 0
872 433 0
-873 -436 0
873 436 0
-874 -439 0
874 439 0
-875 -442 0
875 442 0
-876 -444 0
876 444 0
-877 -447 0
877 447 0
-878 -47 0
878 47 0
-879 -450 0
879 450 0
-880 -453 0
880 453 0
-881 -456 0
881 456 0
-882 -459 0
882 459 0
-883 -462 0
883 462 0
-884 -465 0
884 465 0
-885 -468 0
885 468 0
-886 -471 0
886 471 0
-887 -474 0
887 474 0
-888 -477 0
888 477 0
-889 -480 0
889 480 0
-890 -483 0
890 483 0
-891 -486 0
891 486 0
-892 -489 0
892 489 0
-893 -492 0
893 492 0
-894 -495 0
894 495 0
-895 -498 0
895 498 0
-896 -501 0
896 501 0
-897 -503 0
897 503 0
-898 -506 0
898 506 0
-899 -509 0
899 509 0
-900 -512 0
900 512 0
-901 -515 0
901 515 0
-902 -517 0
902 517 0
-903 -520 0
903 520 0
-904 -523 0
904 523 0
-905 -526 0
905 526 0
-906 -529 0
906 529 0
-907 -532 0
907 532 0
-908 -535 0
908 535 0
-909 -538 0
909 538 0
-910 -541 0
910 541 0
-911 -544 0
911 544 0
-912 -547 0
912 547 0
-913 -549 0
913 549 0
-914 -552 0
914 552 0
-915 -555 0
915 555 0
-916 -558 0
916 558 0
-917 -561 0
917 561 0
-918 -564 0
918 564 0
-919 -567 0
919 567 0
-920 -570 0
920 570 0
-921 -573 0
921 573 0
-922 -576 0
922 576 0
-923 -579 0
923 579 0
-924 -582 0
924 582 0
-925 -585 0
925 585 0
-926 -588 0
926 588 0
-927 -591 0
927 591 0
-928 -594 0
928 594 0
-929 -597 0
929 597 0
-930 -600 0
930 600 0
-931 -603 0
931 603 0
-932 -606 0
932 606 0
-933 -608 0
933 608 0
-934 -611 0
934 611 0
-935 -614 0
935 614 0
-936 -617 0
936 617 0
-937 -620 0
937 620 0
-938 -623 0
938 623 0
-939 -626 0
939 626 0
-940 -629 0
940 629 0
-941 -632 0
941 632 0
-942 -635 0
942 635 0
-943 -638 0
943 638 0
-944 -641 0
944 641 0
-945 -644 0
945 644 0
-946 -647 0
946 647 0
-947 -650 0
947 650 0
-948 -653 0
948 653 0
-949 -656 0
949 656 0
-950 -659 0
950 659 0
-951 -661 0
951 661 0
-952 -664 0
952 664 0
-953 -667 0
953 667 0
-954 -669 0
954 669 0
-955 -672 0
955 672 0
-956 -675 0
956 675 0
-957 -678 0
957 678 0
-958 -681 0
958 681 0
-959 -684 0
959 684 0
-960 -687 0
960 687 0
-961 -690 0
961 690 0
-962 -693 0
962 693 0
694 0
